Route #1: 26 7 53 11 66 59 14 35 8
Route #2: 46 19 54 13 57 15 37 20 70 60 71 36 69 21 74
Route #3: 62 28 61 22 64 42 41 43 23 56 24 49
Route #4: 58 38 65 10 31 25 55 18 50 9 39 72
Route #5: 12 40 32 44 3 16 63 33 1 73 2
Route #6: 30 48 47 5 29 45 27 52 34 67
Route #7: 75 4 68 6 51 17
Cost 731